(set-option :smt.seq.validate true)
(set-option :smt.phase_selection 5)
(set-option :smt.threads 4)
(declare-fun a () string)
(declare-fun g () string)
(declare-fun b () string)
(declare-fun c () string)
(declare-fun d () string)
(declare-fun h () string)
(declare-fun e () string)
(declare-fun f () string)
(assert (= (str.substr c 0 (str.len f)) (str.substr g 0 (str.len h)) (str.substr b 0 (str.len e ))))
(assert (= (str.substr a 0 (str.len d)) ""))
(check-sat)